p cnf 161616 96
10305 0
10743 0
11648 0
20304 0
20642 0
20707 0
20803 0
21108 0
21305 0
21444 0
21543 0
30146 0
30202 0
30604 0
30709 0
30801 0
31307 0
31408 0
40201 0
40406 0
40502 0
40648 0
40944 0
41247 0
50145 0
50548 0
51509 0
51604 0
60301 0
60402 0
60705 0
60842 0
61047 0
61204 0
61406 0
61508 0
70207 0
70443 0
70506 0
70702 0
70845 0
71205 0
80206 0
80608 0
80704 0
81243 0
81347 0
81403 0
90348 0
90401 0
90509 0
91007 0
91142 0
91506 0
100507 0
100908 0
101004 0
101248 0
101344 0
101545 0
110245 0
110302 0
110547 0
110742 0
110901 0
111003 0
111308 0
111446 0
120106 0
120247 0
121244 0
121601 0
130501 0
130808 0
131107 0
131202 0
131306 0
131503 0
140306 0
140445 0
140946 0
141043 0
141109 0
141547 0
141607 0
150209 0
150346 0
150407 0
150645 0
150905 0
151001 0
151106 0
151443 0
160101 0
161044 0
161442 0
